(set-logic QF_NRA)
(set-info :source |
From termination analysis of term rewriting.

Submitted by Harald Roman Zankl <Harald.Zankl@uibk.ac.at>

|)
(set-info :smt-lib-version 2.0)
(set-info :category "industrial")
(set-info :status unknown)
(declare-fun x6 () Real)
(declare-fun x3 () Real)
(declare-fun x10 () Real)
(declare-fun x0 () Real)
(declare-fun x7 () Real)
(declare-fun x4 () Real)
(declare-fun x11 () Real)
(declare-fun x1 () Real)
(declare-fun x8 () Real)
(declare-fun x5 () Real)
(declare-fun x12 () Real)
(declare-fun x2 () Real)
(declare-fun x9 () Real)
(assert (>= x6 0))
(assert (>= x3 0))
(assert (>= x10 0))
(assert (>= x0 0))
(assert (>= x7 0))
(assert (>= x4 0))
(assert (>= x11 0))
(assert (>= x1 0))
(assert (>= x8 0))
(assert (>= x5 0))
(assert (>= x12 0))
(assert (>= x2 0))
(assert (>= x9 0))
(assert (and (and (and (and (and (and (and (and (and (and (and (not (<= (+ (* (- 1) x3) x0) 0)) (>= (+ (* (- 1) x3) x0) 0)) (>= (+ (* (- 1) x4) x1 x2) 0)) (and (and (not (<= (+ (* (- 1) x3) x0 (* (- 1) (* x4 x5))) 0)) (>= (+ (* (- 1) x3) x0 (* (- 1) (* x4 x5))) 0)) (>= (+ x1 x2 (* (- 1) (* x6 x4))) 0))) (and (and (not (<= (+ (* (- 1) (* x7 x1)) (* (- 1) (* x5 x2)) (* (- 1) (* x6 x5 x2))) 0)) (>= (+ (* (- 1) (* x7 x1)) (* (- 1) (* x5 x2)) (* (- 1) (* x6 x5 x2))) 0)) (>= (+ x1 x2 (* (- 1) (* x1 x8)) (* (- 1) (* x6 x6 x2))) 0))) (and (and (not (<= (* x7 x2) 0)) (>= (* x7 x2) 0)) (>= (+ (* (- 1) x2) (* x8 x2)) 0))) (and (and (not (<= (+ (* (- 1) (* x10 x7)) (* (- 1) (* x11 x5)) (* (- 1) (* x6 x11 x5))) 0)) (>= (+ (* (- 1) (* x10 x7)) (* (- 1) (* x11 x5)) (* (- 1) (* x6 x11 x5))) 0)) (>= (+ x10 x11 (* (- 1) (* x10 x8)) (* (- 1) (* x6 x6 x11))) 0))) (and (and (not (<= x9 0)) (>= x9 0)) (>= x10 1))) (and (and (not (<= (+ (* (- 1) x7) x5) 0)) (>= (+ (* (- 1) x7) x5) 0)) (>= (+ x6 (* (- 1) x8)) 0))) (and (and (not (<= (* x7 x11) 0)) (>= (* x7 x11) 0)) (>= (+ (* (- 1) x11) (* x11 x8)) 0))) (and (not (<= (+ (* (- 1) x12) x9 (* x10 x7) (* x7 x11) (* x11 x8 x5)) 0)) (>= (+ (* (- 1) x12) x9 (* x10 x7) (* x7 x11) (* x11 x8 x5)) 0))) (and (and (and (and (and (not (<= (+ (* (- 1) x3) x0) 0)) (>= (+ (* (- 1) x3) x0) 0)) (>= (+ (* (- 1) x4) x1 x2) 0)) (and (and (not (<= (+ (* (- 1) x3) x0 (* (- 1) (* x4 x5))) 0)) (>= (+ (* (- 1) x3) x0 (* (- 1) (* x4 x5))) 0)) (>= (+ x1 x2 (* (- 1) (* x6 x4))) 0))) (and (and (not (<= (+ (* (- 1) (* x7 x1)) (* (- 1) (* x5 x2)) (* (- 1) (* x6 x5 x2))) 0)) (>= (+ (* (- 1) (* x7 x1)) (* (- 1) (* x5 x2)) (* (- 1) (* x6 x5 x2))) 0)) (>= (+ x1 x2 (* (- 1) (* x1 x8)) (* (- 1) (* x6 x6 x2))) 0))) (and (and (not (<= (* x7 x2) 0)) (>= (* x7 x2) 0)) (>= (+ (* (- 1) x2) (* x8 x2)) 0)))))
(exit)
(check-sat)
